p tdp 110 109
16 49
7 39
101 75
27 60
64 95
73 27
95 74
83 84
98 91
20 90
89 82
30 12
5 101
47 80
52 91
99 51
52 29
107 100
15 72
109 35
6 53
6 78
55 103
7 12
62 95
10 49
58 2
17 70
32 23
35 86
87 67
3 61
11 59
1 5
37 86
97 87
85 21
50 107
36 65
88 93
104 37
9 106
61 44
14 4
110 7
63 48
108 76
25 63
54 40
14 88
18 41
54 38
8 56
7 28
38 31
72 46
21 43
24 25
70 81
96 23
80 36
103 6
22 92
70 2
95 69
75 18
4 43
105 66
45 62
42 72
11 27
69 25
26 80
99 10
68 85
90 83
79 30
98 73
80 12
110 77
66 60
55 89
107 53
3 19
53 31
94 78
102 33
98 19
89 69
76 84
13 102
86 23
22 34
45 102
101 16
20 68
84 92
90 51
57 2
69 97
15 9
106 26
3 15
4 37
71 57
92 48
56 99
70 30
59 90
